p cnf 126 228               
-1 -39 0
2 -39 0
1 -2 39 0
-39 6 -43 0
39 10 -43 0
6 10 -43 0
43 -88 0
-4 48 0
-2 -44 0
1 -44 0
2 -1 44 0
-44 48 0
4 44 -48 0
48 -50 0
-8 49 0
-39 49 0
8 39 -49 0
49 -50 0
-48 -49 50 0
50 57 0
-3 45 0
-44 45 0
3 44 -45 0
45 -47 0
-7 46 0
-39 46 0
7 39 -46 0
46 -47 0
-45 -46 47 0
47 57 0
-50 -47 -57 0
57 -63 0
-47 58 0
-50 58 0
47 50 -58 0
58 59 0
-5 51 0
-44 51 0
5 44 -51 0
51 -53 0
-9 52 0
-39 52 0
9 39 -52 0
52 -53 0
-51 -52 53 0
53 59 0
-58 -53 -59 0
59 -63 0
-53 60 0
-58 60 0
53 58 -60 0
60 61 0
-6 54 0
-44 54 0
6 44 -54 0
54 -56 0
-10 55 0
-39 55 0
10 39 -55 0
55 -56 0
-54 -55 56 0
56 61 0
-60 -56 -61 0
61 -63 0
-56 62 0
-60 62 0
56 60 -62 0
62 -63 0
-57 -59 -61 -62 63 0
13 -68 0
-56 -64 0
-53 -64 0
-50 -64 0
-47 -64 0
62 64 -65 0
65 -68 0
-63 53 -72 0
63 68 -72 0
53 68 -72 0
72 -88 0
43 -87 0
12 -67 0
65 -67 0
-63 50 -71 0
63 67 -71 0
50 67 -71 0
71 -87 0
43 -86 0
11 -66 0
65 -66 0
-63 47 -70 0
63 66 -70 0
47 66 -70 0
70 -86 0
-39 5 -42 0
39 9 -42 0
5 9 -42 0
42 -85 0
14 -69 0
65 -69 0
-63 56 -73 0
63 69 -73 0
56 69 -73 0
73 -85 0
42 -83 0
71 -83 0
42 -82 0
70 -82 0
-39 4 -41 0
39 8 -41 0
4 8 -41 0
41 -81 0
73 -81 0
41 -80 0
72 -80 0
41 -78 0
70 -78 0
-39 3 -40 0
39 7 -40 0
3 7 -40 0
40 -77 0
73 -77 0
40 -76 0
72 -76 0
40 -75 0
71 -75 0
88 87 86 85 83 82 81 80 78 77 76 75 90 0
-90 -91 0
-2 -1 -15 0
15 -17 0
1 2 -16 0
16 -17 0
17 -91 0
-4 -3 -18 0
18 -24 0
-3 19 0
-4 19 0
3 4 -19 0
-19 -5 -20 0
20 -24 0
-5 21 0
-19 21 0
5 19 -21 0
-21 -6 -22 0
22 -24 0
6 21 -23 0
23 -24 0
24 -91 0
-8 -7 -25 0
25 -31 0
-7 26 0
-8 26 0
7 8 -26 0
-26 -9 -27 0
27 -31 0
-9 28 0
-26 28 0
9 26 -28 0
-28 -10 -29 0
29 -31 0
10 28 -30 0
30 -31 0
31 -91 0
-12 -11 -32 0
32 -38 0
-11 33 0
-12 33 0
11 12 -33 0
-33 -13 -34 0
34 -38 0
-13 35 0
-33 35 0
13 33 -35 0
-35 -14 -36 0
36 -38 0
14 35 -37 0
37 -38 0
38 -91 0
-3 4 -92 0
92 -102 0
-3 -4 93 0
3 4 93 0
-4 4 93 0
-7 8 -94 0
-93 94 -95 0
95 -102 0
-7 -8 96 0
7 8 96 0
-8 8 96 0
-93 -96 97 0
-11 12 -98 0
-97 98 -99 0
99 -102 0
102 -125 0
-4 5 -103 0
103 -113 0
-4 -5 104 0
4 5 104 0
-5 5 104 0
-8 9 -105 0
-104 105 -106 0
106 -113 0
-8 -9 107 0
8 9 107 0
-9 9 107 0
-104 -107 108 0
-12 13 -109 0
-108 109 -110 0
110 -113 0
113 -125 0
-5 6 -114 0
114 -124 0
-5 -6 115 0
5 6 115 0
-6 6 115 0
-9 10 -116 0
-115 116 -117 0
117 -124 0
-9 -10 118 0
9 10 118 0
-10 10 118 0
-115 -118 119 0
-13 14 -120 0
-119 120 -121 0
121 -124 0
124 -125 0
91 0
125 0
